10,1,12,1,8,1,15,1,3,2,1,4,6,3,4,4,13,5,11,3,14,3,9,4,5,5,2,5;1,1,7,1,13,3,4,2,6,2,8,2,3,3,15,2,7,3,14,2,2,3,5,4,12,4,9,5,11,5;9,1,6,1,1,2,11,1,11,2,3,1,13,4,5,3,8,3,10,5,15,3,4,5,12,3,14,4,2,4,7,5;4,1,13,2,9,2,7,2,10,3,10,4,2,1,1,5,6,4,3,4,15,5,8,5,11,4,12,5,14,5;13,1,5,1,10,2,1,3,9,3,5,2,4,3,14,1,8,4,15,4,2,2,12,2,7,4,6,5,3,5;
